NAME : instances/diverse-tsp/instance-42.tsp
COMMENT : No Comment
TYPE : TSP
DIMENSION: 51
EDGE_WEIGHT_TYPE : EUC_2D
NODE_COORD_SECTION
1 1755 663 
2 108 1710 
3 1982 576 
4 75 1417 
5 1865 1027 
6 1086 1512 
7 587 1545 
8 1669 915 
9 1712 1660 
10 89 7 
11 357 1850 
12 38 1528 
13 1594 1188 
14 844 464 
15 1994 919 
16 1232 111 
17 190 383 
18 1027 443 
19 1945 701 
20 856 1309 
21 1773 611 
22 882 366 
23 1496 1572 
24 1458 880 
25 987 939 
26 1430 1632 
27 117 627 
28 1832 1252 
29 244 35 
30 492 128 
31 1136 1086 
32 1473 942 
33 100 1454 
34 1231 892 
35 728 867 
36 65 1619 
37 530 617 
38 1526 422 
39 50 799 
40 1363 640 
41 52 174 
42 1392 6 
43 1963 817 
44 1499 417 
45 720 394 
46 1307 1261 
47 701 1997 
48 389 1781 
49 1341 1656 
50 632 1920 
51 556 936 
EOF
